(set-info :smt-lib-version 2.6)
(set-logic QF_UFNIA)
(set-info :source |
Generated by: Geoff Sutcliffe
Generated on: 2026-03-11
Generator: TPTPWorld
Application: Benchmarking automated theorem provers
Time limit: 120.0

These benchmarks are translations from the TPTP Library (Thousands of
Problems for Theorem Provers), see http://www.cs.miami.edu/~tptp/

The TPTP is maintained by Geoff Sutcliffe, and he contributed this
selection of benchmarks to SMT-LIB.  They were exported from the
v9.2.1 realease of TPTP.
|)
(set-info :category "industrial")
(set-info :status "unknown")
; SZS status Success
(declare-sort $$unsorted 0)
(declare-fun tptp.x () Int)
(declare-fun tptp.y () Int)
(declare-fun tptp.z () Int)
(declare-fun tptp.t () Int)
(declare-fun tptp.u () Int)
(declare-fun tptp.v () Int)
(declare-fun tptp.w () Int)
(assert (= (+ (+ (+ (+ (+ (+ (* tptp.x tptp.x) (* tptp.y tptp.y)) (* tptp.z tptp.z)) (* tptp.t tptp.t)) (* tptp.u tptp.u)) (* tptp.v tptp.v)) (* tptp.w tptp.w)) 1234567890987654321))
(check-sat)
(exit)
